c CNF file corresponding to a (partial) station packing problem.
p cnf 5918 229
1 2 3 4 5 6 7 8 9 10 11 12 13 14 0
-1 -2 0
-1 -3 0
-1 -4 0
-1 -5 0
-1 -6 0
-1 -7 0
-1 -8 0
-1 -9 0
-1 -10 0
-1 -11 0
-1 -12 0
-1 -13 0
-1 -14 0
-2 -3 0
-2 -4 0
-2 -5 0
-2 -6 0
-2 -7 0
-2 -8 0
-2 -9 0
-2 -10 0
-2 -11 0
-2 -12 0
-2 -13 0
-2 -14 0
-3 -4 0
-3 -5 0
-3 -6 0
-3 -7 0
-3 -8 0
-3 -9 0
-3 -10 0
-3 -11 0
-3 -12 0
-3 -13 0
-3 -14 0
-4 -5 0
-4 -6 0
-4 -7 0
-4 -8 0
-4 -9 0
-4 -10 0
-4 -11 0
-4 -12 0
-4 -13 0
-4 -14 0
-5 -6 0
-5 -7 0
-5 -8 0
-5 -9 0
-5 -10 0
-5 -11 0
-5 -12 0
-5 -13 0
-5 -14 0
-6 -7 0
-6 -8 0
-6 -9 0
-6 -10 0
-6 -11 0
-6 -12 0
-6 -13 0
-6 -14 0
-7 -8 0
-7 -9 0
-7 -10 0
-7 -11 0
-7 -12 0
-7 -13 0
-7 -14 0
-8 -9 0
-8 -10 0
-8 -11 0
-8 -12 0
-8 -13 0
-8 -14 0
-9 -10 0
-9 -11 0
-9 -12 0
-9 -13 0
-9 -14 0
-10 -11 0
-10 -12 0
-10 -13 0
-10 -14 0
-11 -12 0
-11 -13 0
-11 -14 0
-12 -13 0
-12 -14 0
-13 -14 0
5902 5903 5904 5905 5906 5907 5908 5909 5910 5911 5912 5913 5914 5915 5916 5917 5918 0
-5902 -5903 0
-5902 -5904 0
-5902 -5905 0
-5902 -5906 0
-5902 -5907 0
-5902 -5908 0
-5902 -5909 0
-5902 -5910 0
-5902 -5911 0
-5902 -5912 0
-5902 -5913 0
-5902 -5914 0
-5902 -5915 0
-5902 -5916 0
-5902 -5917 0
-5902 -5918 0
-5903 -5904 0
-5903 -5905 0
-5903 -5906 0
-5903 -5907 0
-5903 -5908 0
-5903 -5909 0
-5903 -5910 0
-5903 -5911 0
-5903 -5912 0
-5903 -5913 0
-5903 -5914 0
-5903 -5915 0
-5903 -5916 0
-5903 -5917 0
-5903 -5918 0
-5904 -5905 0
-5904 -5906 0
-5904 -5907 0
-5904 -5908 0
-5904 -5909 0
-5904 -5910 0
-5904 -5911 0
-5904 -5912 0
-5904 -5913 0
-5904 -5914 0
-5904 -5915 0
-5904 -5916 0
-5904 -5917 0
-5904 -5918 0
-5905 -5906 0
-5905 -5907 0
-5905 -5908 0
-5905 -5909 0
-5905 -5910 0
-5905 -5911 0
-5905 -5912 0
-5905 -5913 0
-5905 -5914 0
-5905 -5915 0
-5905 -5916 0
-5905 -5917 0
-5905 -5918 0
-5906 -5907 0
-5906 -5908 0
-5906 -5909 0
-5906 -5910 0
-5906 -5911 0
-5906 -5912 0
-5906 -5913 0
-5906 -5914 0
-5906 -5915 0
-5906 -5916 0
-5906 -5917 0
-5906 -5918 0
-5907 -5908 0
-5907 -5909 0
-5907 -5910 0
-5907 -5911 0
-5907 -5912 0
-5907 -5913 0
-5907 -5914 0
-5907 -5915 0
-5907 -5916 0
-5907 -5917 0
-5907 -5918 0
-5908 -5909 0
-5908 -5910 0
-5908 -5911 0
-5908 -5912 0
-5908 -5913 0
-5908 -5914 0
-5908 -5915 0
-5908 -5916 0
-5908 -5917 0
-5908 -5918 0
-5909 -5910 0
-5909 -5911 0
-5909 -5912 0
-5909 -5913 0
-5909 -5914 0
-5909 -5915 0
-5909 -5916 0
-5909 -5917 0
-5909 -5918 0
-5910 -5911 0
-5910 -5912 0
-5910 -5913 0
-5910 -5914 0
-5910 -5915 0
-5910 -5916 0
-5910 -5917 0
-5910 -5918 0
-5911 -5912 0
-5911 -5913 0
-5911 -5914 0
-5911 -5915 0
-5911 -5916 0
-5911 -5917 0
-5911 -5918 0
-5912 -5913 0
-5912 -5914 0
-5912 -5915 0
-5912 -5916 0
-5912 -5917 0
-5912 -5918 0
-5913 -5914 0
-5913 -5915 0
-5913 -5916 0
-5913 -5917 0
-5913 -5918 0
-5914 -5915 0
-5914 -5916 0
-5914 -5917 0
-5914 -5918 0
-5915 -5916 0
-5915 -5917 0
-5915 -5918 0
-5916 -5917 0
-5916 -5918 0
-5917 -5918 0
